Traveling Salesman Problem/TSP_generados/Aleatorio1620392574_16.tsp
NAME: Aleatorio1620392574_16.tsp
COMMENT: Randomly generated scenario
TYPE: TSP
DIMENSION: 16
EDGE_WEIGHT_TYPE: ATT
NODE_COORD_SECTION
1 2.84 31.4
2 49.84 11.01
3 1.95 16.43
4 8.48 15.76
5 22.28 0.45
6 8.93 31.97
7 36.42 10.85
8 43.89 21.93
9 25.56 31.91
10 9.48 13.89
11 40.29 2.93
12 25.07 10.74
13 12.59 6.07
14 1.5 46.68
15 27.29 37.72
16 22.98 25.4
