Traveling Salesman Problem/TSP_generados/Aleatorio1620392574_16.opt.tour
NAME: Aleatorio1620392574_16.opt.tour
COMMENT: Optimal solution for Aleatorio1620392574_16 (182.3750828257412)
TYPE: TOUR
DIMENSION: 16
TOUR_SECTION
1 3 4 10 13 5 12 7 11 2 8 15 9 16 6 14
-1
EOF
